n = 70;
m = 3;
capacities = [180, 180, 180];
profits = [58, 69, 63, 78, 23, 83, 94, 22, 30, 58, 66, 67, 79, 39, 44, 27, 26, 74, 96, 52, 83, 19, 45, 12, 25, 33, 72, 27, 64, 96, 47, 15, 25, 66, 10, 48, 80, 31, 34, 29, 50, 90, 45, 12, 61, 57, 60, 91, 63, 62, 38, 93, 42, 52, 77, 90, 10, 54, 41, 13, 86, 83, 64, 41, 72, 93, 75, 23, 48, 74];
weights = [5, 17, 18, 8, 14, 13, 5, 14, 11, 15, 16, 13, 16, 16, 9, 5, 10, 11, 20, 12, 19, 16, 6, 14, 5, 19, 12, 14, 10, 12, 17, 6, 18, 17, 16, 20, 8, 6, 18, 11, 18, 15, 9, 16, 18, 19, 6, 20, 10, 11, 14, 19, 12, 12, 18, 17, 10, 8, 7, 7, 6, 13, 16, 5, 17, 8, 7, 15, 17, 16];
